228 300 182 170 196 151 193 180 173 160 197 172 168 187 193 197 187 177 192 171 200 157 167 198 186 158 198 163 153 171 187 164 167 168 158 162 194 175 166 191 185 163 187 178 200 179 174 160 180 165 155 153 172 173 175 157 155 172 170 158 167 157 198 184 200 180 171 194 155 187 184 190 200 171 167 173 174 166 184 179 181 189 182 153 186 157 160 191 179 155 174 197 187 171 180 186 150 175 179 155 162 188 170 186 158 161 159 156 177 193 185 183 155 167 186 192 174 170 182 177 175 155 173 161 150 178 172 176 152 175 155 189 162 175 175 195 161 184 151 162 150 160 195 155 177 154 171 175 175 153 152 174 183 200 160 158 177 182 184 154 181 189 193 194 189 167 162 174 175 163 186 200 174 155 155 175 159 150 150 158 153 177 157 161 176 167 194 178 173 177 182 153 190 174 171 152 166 184 176 165 197 162 165 195 167 195 195 150 195 195 159 173 196 166 184 196 157 151 173 180 152 179 157 192 178 179 195 168 162 170 